c Source: TUDataset AIDS, graph #1339
c Original: n=9, m=12
c Augmented: +5 edges, n=11 -> m=17, circuit_rank=7
c Augmented to satisfy Eulerian condition (no parallel edges)
p sp 11
e 2 5
e 1 3
e 5 7
e 1 2
e 4 9
e 3 7
e 5 9
e 2 6
e 3 6
e 1 4
e 4 8
e 7 8
e 1 10
e 2 10
e 3 11
e 7 11
e 4 5
